Synthetic spacer plus tetrahalometal contact proxy; no formal charges
1.0
24.000000000000 0.000000000000 0.000000000000
1.200000000000 22.500000000000 0.000000000000
0.400000000000 0.800000000000 21.500000000000
C Fe Cl Br
6 1 3 1
Direct
0.125430232558 0.299534883721 0.325581395349
0.185846899225 0.299534883721 0.325581395349
0.240652454780 0.328423772610 0.325581395349
0.284152454780 0.375090439276 0.325581395349
0.338958010336 0.403979328165 0.325581395349
0.399374677003 0.403979328165 0.325581395349
0.611874677003 0.403979328165 0.325581395349
0.518124677003 0.403979328165 0.325581395349
0.638410631795 0.498260232324 0.325581395349
0.644209484004 0.353800749274 0.411028711958
0.648304103574 0.357916899554 0.236336420224
