idealized explicit LaO6 cage example
1.0
  8.000000000000  0.000000000000  0.000000000000
  0.000000000000  8.000000000000  0.000000000000
  0.000000000000  0.000000000000  8.000000000000
  La  O
  1  6
Direct
  0.500000000000  0.500000000000  0.500000000000
  0.800000000000  0.500000000000  0.500000000000
  0.200000000000  0.500000000000  0.500000000000
  0.500000000000  0.800000000000  0.500000000000
  0.500000000000  0.200000000000  0.500000000000
  0.500000000000  0.500000000000  0.800000000000
  0.500000000000  0.500000000000  0.200000000000
